(declare-fun var0 () String)
(assert (str.in.re var0 (re.++ (re.* (re.union (str.to.re "Y") (str.to.re "ZZ"))) (re.++ (re.union (re.union (str.to.re "VVV") (str.to.re "WWW")) (re.+ (str.to.re "XXX"))) (re.++ (re.union (re.+ (str.to.re "TT")) (re.* (str.to.re "UUU"))) (re.++ (re.+ (re.+ (str.to.re "SSS"))) (re.++ (re.* (re.* (str.to.re "R"))) (re.++ (re.+ (re.* (str.to.re "Q"))) (re.++ (re.union (re.union (str.to.re "NNN") (str.to.re "OOO")) (re.* (str.to.re "PP"))) (re.++ (re.+ (re.+ (str.to.re "M"))) (re.++ (re.+ (re.* (str.to.re "L"))) (re.++ (re.+ (re.+ (str.to.re "K"))) (re.++ (re.union (re.union (str.to.re "HHH") (str.to.re "I")) (re.+ (str.to.re "JJ"))) (re.++ (re.union (re.+ (str.to.re "FFF")) (re.* (str.to.re "GGG"))) (re.++ (re.union (re.* (str.to.re "DD")) (re.+ (str.to.re "E"))) (re.++ (re.* (re.+ (str.to.re "CC"))) (re.++ (re.union (re.+ (str.to.re "zz")) (re.union (str.to.re "AA") (str.to.re "B"))) (re.++ (re.* (re.* (str.to.re "yyy"))) (re.++ (re.union (re.+ (str.to.re "vv")) (re.union (str.to.re "www") (str.to.re "xxx"))) (re.++ (re.* (re.+ (str.to.re "uuu"))) (re.++ (re.* (re.* (str.to.re "tt"))) (re.++ (re.union (re.* (str.to.re "q")) (re.union (str.to.re "rrr") (str.to.re "ss"))) (re.++ (re.* (re.* (str.to.re "p"))) (re.++ (re.* (re.* (str.to.re "ooo"))) (re.++ (re.* (re.+ (str.to.re "nn"))) (re.++ (re.+ (re.union (str.to.re "lll") (str.to.re "m"))) (re.++ (re.* (re.union (str.to.re "jj") (str.to.re "kk"))) (re.++ (re.+ (re.union (str.to.re "hh") (str.to.re "iii"))) (re.++ (re.+ (re.union (str.to.re "ff") (str.to.re "ggg"))) (re.++ (re.union (re.* (str.to.re "ddd")) (re.* (str.to.re "eee"))) (re.++ (re.* (re.* (str.to.re "c"))) (re.++ (re.union (re.* (str.to.re "aa")) (re.+ (str.to.re "bbb"))) (re.++ (re.union (re.union (str.to.re "7") (str.to.re "8")) (re.* (str.to.re "999"))) (re.++ (re.union (re.union (str.to.re "4") (str.to.re "555")) (re.* (str.to.re "666"))) (re.++ (re.+ (re.+ (str.to.re "333"))) (re.++ (re.+ (re.+ (str.to.re "222"))) (re.union (re.* (str.to.re "0")) (re.+ (str.to.re "11")))))))))))))))))))))))))))))))))))))))
(check-sat)